graph_generation/data/cp/tcsp/hexagonal_lattice_N_5_task_random.dzn
nodes = 70;
edges = 160;
starts = [1, 1, 2, 3, 4, 5, 5, 6, 7, 8, 9, 9, 10, 11, 12, 13, 13, 14, 15, 15, 16, 17, 17, 19, 19, 20, 21, 22, 23, 24, 24, 25, 26, 26, 27, 28, 28, 29, 30, 31, 32, 32, 33, 34, 34, 36, 37, 37, 38, 39, 41, 41, 42, 43, 43, 45, 45, 46, 47, 48, 48, 49, 50, 50, 52, 52, 54, 55, 56, 57, 58, 61, 62, 63, 64, 65, 66, 67, 68, 69, 2, 12, 3, 14, 5, 6, 16, 7, 18, 9, 10, 20, 11, 22, 13, 14, 25, 15, 16, 27, 17, 18, 29, 20, 31, 21, 33, 23, 35, 25, 36, 26, 27, 38, 28, 29, 40, 30, 31, 32, 33, 44, 34, 35, 46, 37, 38, 49, 39, 40, 42, 53, 43, 44, 55, 46, 57, 47, 59, 49, 60, 50, 51, 62, 53, 64, 55, 56, 68, 58, 59, 62, 63, 64, 65, 66, 67, 68, 69, 70];
ends = [2, 12, 3, 14, 5, 6, 16, 7, 18, 9, 10, 20, 11, 22, 13, 14, 25, 15, 16, 27, 17, 18, 29, 20, 31, 21, 33, 23, 35, 25, 36, 26, 27, 38, 28, 29, 40, 30, 31, 32, 33, 44, 34, 35, 46, 37, 38, 49, 39, 40, 42, 53, 43, 44, 55, 46, 57, 47, 59, 49, 60, 50, 51, 62, 53, 64, 55, 56, 68, 58, 59, 62, 63, 64, 65, 66, 67, 68, 69, 70, 1, 1, 2, 3, 4, 5, 5, 6, 7, 8, 9, 9, 10, 11, 12, 13, 13, 14, 15, 15, 16, 17, 17, 19, 19, 20, 21, 22, 23, 24, 24, 25, 26, 26, 27, 28, 28, 29, 30, 31, 32, 32, 33, 34, 34, 36, 37, 37, 38, 39, 41, 41, 42, 43, 43, 45, 45, 46, 47, 48, 48, 49, 50, 50, 52, 52, 54, 55, 56, 57, 58, 61, 62, 63, 64, 65, 66, 67, 68, 69];
weights = [5, 3, 17, 3, 11, 4, 14, 1, 17, 12, 5, 19, 3, 7, 2, 9, 10, 6, 4, 11, 18, 18, 14, 11, 9, 15, 13, 19, 18, 13, 7, 17, 1, 17, 16, 1, 11, 13, 14, 1, 15, 17, 16, 13, 5, 18, 3, 9, 12, 1, 12, 12, 16, 5, 14, 17, 17, 16, 7, 9, 3, 2, 13, 2, 2, 17, 13, 16, 12, 2, 2, 17, 6, 3, 2, 7, 12, 16, 4, 16, 5, 3, 17, 3, 11, 4, 14, 1, 17, 12, 5, 19, 3, 7, 2, 9, 10, 6, 4, 11, 18, 18, 14, 11, 9, 15, 13, 19, 18, 13, 7, 17, 1, 17, 16, 1, 11, 13, 14, 1, 15, 17, 16, 13, 5, 18, 3, 9, 12, 1, 12, 12, 16, 5, 14, 17, 17, 16, 7, 9, 3, 2, 13, 2, 2, 17, 13, 16, 12, 2, 2, 17, 6, 3, 2, 7, 12, 16, 4, 16];
start = 1;
end= 70;
tasks = 6;
task = array2d(1..tasks, 1..nodes, [0, 0, 0, 0, 0, 0, 0, 0, 0, 0, 0, 0, 0, 0, 0, 0, 0, 0, 0, 0, 0, 0, 0, 0, 0, 0, 1, 0, 0, 0, 0, 0, 0, 0, 0, 0, 0, 0, 0, 0, 0, 0, 0, 0, 0, 0, 0, 0, 0, 0, 0, 0, 0, 0, 0, 0, 0, 0, 0, 0, 0, 0, 0, 0, 0, 0, 0, 0, 0, 0, 0, 0, 0, 0, 0, 0, 0, 0, 0, 0, 0, 0, 0, 0, 0, 0, 0, 0, 0, 0, 0, 0, 0, 0, 0, 0, 0, 0, 1, 0, 0, 0, 0, 0, 0, 0, 0, 0, 0, 0, 0, 0, 0, 0, 0, 0, 0, 0, 0, 0, 0, 0, 0, 0, 0, 0, 0, 0, 0, 0, 0, 0, 0, 0, 0, 0, 0, 0, 0, 0, 0, 0, 0, 0, 0, 0, 0, 0, 0, 0, 0, 0, 0, 0, 0, 0, 0, 0, 0, 0, 0, 0, 0, 0, 0, 0, 0, 0, 0, 0, 0, 0, 0, 0, 0, 0, 0, 0, 0, 1, 0, 0, 0, 0, 0, 0, 0, 0, 0, 0, 0, 0, 0, 0, 0, 0, 0, 0, 0, 0, 0, 0, 0, 0, 0, 0, 0, 0, 0, 0, 0, 0, 0, 0, 0, 0, 0, 0, 0, 0, 0, 0, 0, 0, 0, 0, 0, 0, 0, 0, 0, 0, 0, 0, 0, 0, 0, 0, 0, 0, 0, 0, 0, 0, 0, 0, 0, 0, 0, 0, 0, 0, 0, 0, 0, 0, 0, 0, 0, 0, 0, 0, 0, 0, 0, 0, 1, 0, 0, 0, 0, 0, 0, 0, 0, 0, 0, 0, 0, 0, 0, 0, 0, 0, 0, 0, 0, 0, 0, 0, 0, 0, 0, 0, 0, 0, 0, 0, 0, 0, 0, 0, 0, 0, 0, 0, 0, 0, 0, 0, 0, 0, 0, 0, 0, 0, 0, 0, 0, 0, 0, 0, 0, 0, 0, 0, 0, 0, 0, 0, 0, 0, 0, 0, 0, 0, 0, 0, 0, 0, 0, 0, 0, 0, 0, 0, 0, 0, 1, 0, 0, 0, 0, 0, 0, 0, 0, 0, 0, 0, 0, 0, 0, 0, 0, 0, 0, 0, 0, 0, 0, 0, 0, 0, 0, 0, 0, 0, 0, 0, 0, 0, 0, 0, 0, 0, 0, 0, 0, 0, 0, 0, 0, 0, 0, 0, 0, 0, 0, 0, 0, 0, 0, 0, 0, 0, 0, 0, 0, 0, 0, 0, 0, 0, 0, 0, 0, 0, 0, 1]);
