graph_generation/data/sat/tcsp/hexagonal_lattice_N_5_task_random.txt
70 80 1 70 6
1 2 5
1 12 3
2 3 17
3 14 3
4 5 11
5 6 4
5 16 14
6 7 1
7 18 17
8 9 12
9 10 5
9 20 19
10 11 3
11 22 7
12 13 2
13 14 9
13 25 10
14 15 6
15 16 4
15 27 11
16 17 18
17 18 18
17 29 14
19 20 11
19 31 9
20 21 15
21 33 13
22 23 19
23 35 18
24 25 13
24 36 7
25 26 17
26 27 1
26 38 17
27 28 16
28 29 1
28 40 11
29 30 13
30 31 14
31 32 1
32 33 15
32 44 17
33 34 16
34 35 13
34 46 5
36 37 18
37 38 3
37 49 9
38 39 12
39 40 1
41 42 12
41 53 12
42 43 16
43 44 5
43 55 14
45 46 17
45 57 17
46 47 16
47 59 7
48 49 9
48 60 3
49 50 2
50 51 13
50 62 2
52 53 2
52 64 17
54 55 13
55 56 16
56 68 12
57 58 2
58 59 2
61 62 17
62 63 6
63 64 3
64 65 2
65 66 7
66 67 12
67 68 16
68 69 4
69 70 16
27
29
40
57
69
70
